20
1 0 7
2 0 11
2 1 4
3 0 13
3 1 1
3 2 14
4 0 6
4 1 8
4 2 5
4 3 4
5 0 14
5 1 12
5 2 13
5 3 4
5 4 4
6 0 7
6 1 9
6 2 2
6 3 7
6 4 7
6 5 3
7 0 2
7 1 10
7 2 9
7 3 8
7 4 2
7 5 3
7 6 6
8 0 12
8 1 7
8 2 12
8 3 1
8 4 2
8 5 3
8 6 5
8 7 12
9 0 10
9 1 13
9 2 11
9 3 3
9 4 1
9 5 1
9 6 9
9 7 7
9 8 9
10 0 13
10 1 4
10 2 9
10 3 3
10 4 7
10 5 4
10 6 6
10 7 9
10 8 13
10 9 12
11 0 5
11 1 2
11 2 12
11 3 1
11 4 11
11 5 7
11 6 8
11 7 9
11 8 13
11 9 11
11 10 8
12 0 10
12 1 7
12 2 12
12 3 13
12 4 2
12 5 3
12 6 4
12 7 13
12 8 13
12 9 14
12 10 11
12 11 10
13 0 2
13 1 8
13 2 11
13 3 2
13 4 1
13 5 7
13 6 9
13 7 11
13 8 13
13 9 1
13 10 14
13 11 14
13 12 10
14 0 9
14 1 13
14 2 5
14 3 4
14 4 3
14 5 3
14 6 3
14 7 1
14 8 13
14 9 12
14 10 10
14 11 1
14 12 4
14 13 8
15 0 14
15 1 14
15 2 13
15 3 8
15 4 4
15 5 14
15 6 6
15 7 1
15 8 13
15 9 13
15 10 6
15 11 2
15 12 9
15 13 2
15 14 8
16 0 4
16 1 11
16 2 8
16 3 11
16 4 5
16 5 10
16 6 1
16 7 9
16 8 12
16 9 5
16 10 6
16 11 12
16 12 1
16 13 12
16 14 9
16 15 12
17 0 14
17 1 14
17 2 9
17 3 3
17 4 6
17 5 14
17 6 7
17 7 5
17 8 9
17 9 9
17 10 9
17 11 13
17 12 1
17 13 1
17 14 5
17 15 12
17 16 9
18 0 4
18 1 5
18 2 6
18 3 7
18 4 14
18 5 11
18 6 8
18 7 7
18 8 6
18 9 2
18 10 4
18 11 9
18 12 7
18 13 12
18 14 4
18 15 1
18 16 3
18 17 13
19 0 1
19 1 14
19 2 1
19 3 10
19 4 8
19 5 1
19 6 6
19 7 8
19 8 13
19 9 9
19 10 7
19 11 1
19 12 3
19 13 9
19 14 5
19 15 5
19 16 14
19 17 11
19 18 10
